8611883513918461733505,4,1,2,04,13,1,2,09,12,1,2,012,3,1,2,08,3,1,2,010,13,1,2,04,15,1,2,03,5,1,2,01,10,1,2,06,3,1,2,011,10,1,2,08,9,1,2,05,7,1,2,03,2,1,2,014,10,1,2,02,9,1,2,011,7,1,2,08,11,1,2,013,6,1,2,014,1,1,2,09,5,1,2,014,1,1,2,010,3,1,2,07,15,1,2,05,3,1,2,013,1,1,2,013,11,1,2,014,12,1,2,02,1,1,2,02,13,1,2,014,5,1,2,012,15,1,2,015,2,1,2,09,7,1,2,04,13,1,2,015,6,1,2,08,7,1,2,01,12,1,2,06,13,1,2,013,7,1,2,011,9,1,2,015,5,1,2,06,13,1,2,02,9,1,2,07,12,1,2,05,10,1,2,03,7,1,2,06,7,1,2,05,13,1,2,014,8,1,2,0